40 1 4
665 667 830 415 869 643 4 883 734 68 1 780 389 535 283 49 579 31 804 252 115 334 362 710 454 836 566 42 561 356 604 226 23 433 641 891 75 644 774 808 
712 775 588 100 309 871 149 888 901 952 139 15 285 501 724 739 337 290 781 898 646 384 123 668 816 764 559 891 408 333 699 120 108 286 219 416 157 368 303 57 
320 442 72 605 942 796 343 278 86 123 175 731 506 298 399 322 62 958 212 469 291 910 588 398 196 807 814 352 175 117 409 494 558 481 98 500 277 440 778 362 
563 953 92 68 251 491 389 312 448 601 781 738 510 369 136 706 175 949 57 349 65 466 843 623 947 940 123 223 380 900 584 942 852 676 10 103 166 399 414 614 
9990 1940 3520 5090 5620 4870 2140 7370 4350 2710 860 5000 7370 9280 1230 6830 8670 2450 9050 2470 1440 4890 1880 9960 1640 1970 980 3300 5960 5120 9430 5940 7050 2940 1030 2670 7800 3170 40 2150 
90080
